Cubic BN
2
0.6 0 0
0 1 0
0 0 1
C
1
Direct
0.50 0.50 0.50